[[12, 40, 39, 9, 25, 55, 18, 50, 32, 44, 3, 24, 49, 16, 33, 63, 23, 56, 43, 41, 42, 64, 22], [73, 62, 2, 28, 74, 61, 21, 47, 69, 36, 71, 60, 70, 20, 37, 57, 15, 5, 29, 48, 30, 45, 27, 13, 52], [4, 75, 68, 6, 51, 17, 76, 26, 67, 34, 46, 7, 8, 35, 54, 19, 53, 14, 59, 11, 66, 65, 38, 10, 31, 58, 72]]